53807
14 16 907
16 39 451
39 46 214
46 36 402
36 15 679
15 52 631
52 2 598
2 45 787
45 11 436
11 25 545
25 31 299
31 27 4460
27 1 4123
1 33 7621
33 42 4807
42 12 2092
12 18 768
18 4 606
4 30 380
30 47 944
47 54 491
54 26 967
26 55 397
55 28 487
28 6 404
6 3 385
3 43 1096
43 13 790
13 51 644
51 40 1042
40 7 1176
7 37 517
37 20 714
20 50 763
50 24 868
24 35 296
35 5 323
5 41 714
41 32 362
32 8 678
8 38 368
38 44 690
44 19 1282
19 49 934
49 48 761
48 17 415
17 23 619
23 21 176
21 29 516
29 22 544
22 10 117
10 53 819
53 34 396
34 9 835
9 14 471
